c musae-wiki:crocodile: The data was collected from the English Wikipedia (December 2018). https://snap.stanford.edu/data/wikipedia-article-networks.html
p edge 1221 1311
e 1 2
e 1 22
e 1 343
e 1 824
e 3 4
e 3 120
e 3 149
e 3 466
e 3 592
e 3 630
e 3 779
e 3 817
e 3 838
e 3 1020
e 3 508
e 3 1197
e 5 6
e 5 104
e 5 281
e 5 294
e 5 416
e 5 924
e 5 955
e 5 1183
e 6 190
e 7 8
e 7 207
e 7 325
e 9 10
e 9 72
e 9 73
e 9 79
e 9 157
e 9 326
e 9 400
e 9 450
e 9 467
e 9 523
e 9 617
e 9 680
e 9 722
e 9 753
e 9 764
e 9 788
e 9 867
e 9 885
e 9 922
e 9 972
e 9 99
e 9 1127
e 9 1151
e 11 12
e 11 213
e 11 1098
e 11 1160
e 11 550
e 12 272
e 12 605
e 13 14
e 13 286
e 13 58
e 13 385
e 13 707
e 13 1023
e 15 16
e 15 60
e 15 68
e 15 113
e 15 148
e 15 177
e 15 411
e 15 80
e 15 93
e 15 697
e 15 782
e 15 786
e 15 243
e 15 893
e 15 714
e 15 1050
e 15 1108
e 15 1212
e 17 18
e 17 158
e 18 225
e 19 20
e 19 21
e 19 119
e 19 245
e 19 277
e 19 299
e 19 369
e 19 497
e 19 544
e 19 678
e 19 679
e 19 932
e 19 603
e 19 1149
e 19 1172
e 19 1177
e 20 116
e 20 318
e 22 865
e 22 375
e 23 24
e 23 59
e 23 115
e 23 484
e 23 545
e 23 577
e 23 580
e 23 650
e 23 736
e 23 939
e 23 976
e 23 1001
e 23 220
e 23 1153
e 23 853
e 23 1191
e 25 26
e 25 156
e 25 278
e 25 344
e 25 357
e 25 365
e 25 406
e 25 412
e 25 428
e 25 440
e 25 480
e 25 602
e 25 625
e 25 686
e 25 700
e 25 742
e 25 501
e 25 770
e 25 772
e 25 804
e 25 825
e 25 835
e 25 851
e 25 872
e 25 672
e 25 897
e 25 978
e 25 994
e 25 584
e 25 1093
e 25 1171
e 25 1187
e 25 1188
e 25 1198
e 25 1051
e 25 1205
e 27 28
e 27 190
e 27 516
e 27 524
e 27 693
e 27 300
e 27 1111
e 27 1169
e 27 1193
e 28 969
e 29 30
e 29 114
e 29 178
e 29 194
e 29 249
e 29 269
e 29 285
e 29 415
e 29 449
e 29 463
e 29 482
e 29 536
e 29 309
e 29 627
e 29 649
e 29 651
e 29 657
e 29 335
e 29 683
e 29 718
e 29 739
e 29 760
e 29 784
e 29 813
e 29 815
e 29 846
e 29 852
e 29 871
e 29 898
e 29 908
e 29 934
e 29 935
e 29 954
e 29 377
e 29 986
e 29 261
e 29 373
e 29 1123
e 29 1147
e 29 1159
e 29 1161
e 29 1163
e 29 1164
e 29 1204
e 30 75
e 31 32
e 31 613
e 31 1200
e 32 128
e 33 34
e 33 74
e 33 308
e 33 91
e 33 451
e 33 745
e 33 185
e 33 191
e 33 562
e 33 258
e 33 558
e 35 36
e 36 569
e 36 584
e 37 38
e 37 363
e 37 661
e 39 40
e 39 85
e 39 193
e 39 196
e 39 303
e 39 367
e 39 394
e 39 496
e 39 555
e 39 81
e 39 271
e 39 717
e 39 776
e 39 810
e 39 758
e 39 801
e 39 526
e 39 466
e 39 1124
e 39 1181
e 39 1203
e 40 150
e 41 42
e 41 94
e 41 822
e 43 44
e 43 63
e 43 71
e 43 126
e 43 182
e 43 208
e 43 239
e 43 244
e 43 261
e 43 268
e 43 464
e 43 694
e 43 710
e 43 741
e 43 717
e 43 812
e 43 831
e 43 260
e 43 877
e 43 895
e 43 957
e 43 958
e 43 975
e 43 948
e 43 1005
e 43 1007
e 43 1011
e 43 473
e 43 1026
e 43 1068
e 43 132
e 43 1102
e 43 1105
e 45 46
e 45 110
e 45 209
e 45 321
e 45 361
e 45 442
e 45 485
e 45 503
e 45 727
e 45 868
e 45 1003
e 45 1074
e 45 1087
e 45 1089
e 45 658
e 45 1202
e 46 102
e 47 48
e 47 74
e 47 755
e 49 50
e 49 204
e 49 419
e 49 445
e 49 470
e 49 773
e 49 830
e 49 889
e 49 249
e 49 570
e 49 987
e 51 52
e 51 172
e 51 926
e 51 1064
e 53 54
e 53 265
e 53 295
e 53 515
e 53 517
e 53 573
e 53 578
e 53 585
e 53 660
e 53 695
e 53 778
e 53 818
e 53 827
e 53 849
e 53 913
e 53 923
e 53 964
e 53 1080
e 53 385
e 53 1073
e 53 1110
e 53 1146
e 53 1178
e 53 108
e 53 1196
e 55 56
e 55 127
e 55 293
e 55 431
e 55 769
e 55 912
e 55 677
e 55 1109
e 55 1157
e 55 1206
e 57 58
e 57 179
e 57 635
e 57 721
e 57 91
e 57 814
e 57 1180
e 57 879
e 61 62
e 61 171
e 61 298
e 61 342
e 61 349
e 61 433
e 61 471
e 61 330
e 61 604
e 61 629
e 61 634
e 61 662
e 61 733
e 61 734
e 61 767
e 61 781
e 61 793
e 61 808
e 61 816
e 61 833
e 61 848
e 61 850
e 61 938
e 61 952
e 61 966
e 61 1028
e 61 1048
e 61 1053
e 61 1057
e 61 1078
e 61 1079
e 61 1081
e 61 1150
e 61 1154
e 61 280
e 61 1165
e 61 1216
e 61 855
e 61 1220
e 64 65
e 64 623
e 64 814
e 64 1116
e 64 248
e 64 510
e 64 1214
e 66 67
e 66 84
e 66 231
e 66 313
e 66 427
e 66 220
e 66 508
e 66 518
e 66 399
e 66 547
e 66 568
e 66 570
e 66 621
e 66 658
e 66 671
e 66 719
e 66 726
e 66 765
e 66 946
e 66 968
e 66 1070
e 66 1208
e 69 70
e 69 432
e 69 89
e 70 257
e 70 888
e 75 76
e 75 170
e 75 250
e 75 435
e 75 543
e 75 117
e 75 689
e 75 464
e 75 907
e 75 940
e 75 979
e 75 1056
e 75 1066
e 75 1086
e 75 628
e 75 1103
e 75 1185
e 77 78
e 77 243
e 77 417
e 77 771
e 77 789
e 77 118
e 77 894
e 79 364
e 79 331
e 79 873
e 79 414
e 80 81
e 80 123
e 80 141
e 80 345
e 80 103
e 80 603
e 80 620
e 80 325
e 80 725
e 80 743
e 80 819
e 80 834
e 80 858
e 80 948
e 80 1066
e 80 1084
e 80 905
e 80 126
e 80 1173
e 82 83
e 82 118
e 82 636
e 83 266
e 83 828
e 86 87
e 86 355
e 86 832
e 86 1131
e 88 89
e 88 446
e 88 685
e 88 996
e 89 549
e 90 91
e 90 137
e 90 270
e 90 874
e 92 93
e 92 311
e 92 600
e 92 737
e 92 118
e 92 716
e 93 403
e 93 305
e 94 95
e 94 384
e 94 502
e 94 688
e 94 481
e 94 1145
e 96 97
e 96 205
e 96 262
e 96 378
e 96 472
e 96 537
e 96 571
e 96 595
e 96 610
e 96 283
e 96 197
e 96 821
e 96 899
e 96 950
e 96 970
e 96 120
e 96 1009
e 96 1099
e 96 915
e 96 1201
e 96 599
e 98 99
e 100 101
e 100 230
e 100 465
e 101 152
e 102 103
e 102 109
e 102 210
e 102 329
e 102 395
e 102 139
e 102 478
e 102 501
e 102 545
e 102 313
e 102 633
e 102 543
e 102 684
e 102 687
e 102 696
e 102 711
e 102 762
e 102 710
e 102 855
e 102 828
e 102 869
e 102 1088
e 102 1106
e 102 1176
e 103 227
e 105 106
e 105 324
e 105 348
e 105 360
e 105 355
e 105 644
e 105 703
e 105 799
e 105 837
e 105 840
e 105 876
e 105 807
e 105 960
e 105 992
e 105 1156
e 105 667
e 105 1100
e 105 1219
e 106 554
e 106 563
e 106 702
e 106 1017
e 107 108
e 107 353
e 107 659
e 107 664
e 107 1012
e 107 1013
e 107 1091
e 111 112
e 111 140
e 111 160
e 111 244
e 111 377
e 111 399
e 111 456
e 111 572
e 111 692
e 111 768
e 111 845
e 111 920
e 111 1038
e 111 1058
e 111 1134
e 111 491
e 111 1166
e 111 1182
e 112 128
e 116 117
e 116 132
e 116 200
e 116 622
e 116 626
e 116 670
e 116 744
e 116 754
e 116 486
e 116 647
e 116 881
e 116 896
e 116 901
e 116 987
e 116 621
e 116 1001
e 116 1004
e 116 1006
e 116 1037
e 116 1042
e 116 1067
e 116 1082
e 116 1095
e 116 349
e 116 1210
e 118 541
e 120 318
e 121 122
e 122 190
e 124 125
e 124 1000
e 128 129
e 128 296
e 128 366
e 128 551
e 128 656
e 128 705
e 128 766
e 128 372
e 128 418
e 128 929
e 128 943
e 128 973
e 128 1138
e 128 1012
e 128 1218
e 128 1221
e 130 131
e 130 410
e 133 134
e 133 397
e 133 193
e 133 583
e 133 619
e 133 628
e 133 715
e 133 521
e 133 866
e 133 974
e 133 852
e 135 136
e 135 317
e 138 139
e 138 216
e 138 234
e 138 339
e 138 444
e 138 453
e 138 369
e 138 473
e 138 528
e 138 544
e 138 706
e 138 906
e 138 1049
e 138 762
e 138 1179
e 139 165
e 142 143
e 142 675
e 144 145
e 144 192
e 144 529
e 144 557
e 144 561
e 144 720
e 144 759
e 144 798
e 144 853
e 144 903
e 144 921
e 144 928
e 144 963
e 144 982
e 144 768
e 144 1085
e 144 195
e 144 847
e 144 1135
e 146 147
e 146 352
e 147 667
e 150 151
e 150 153
e 150 167
e 150 195
e 150 242
e 150 246
e 150 312
e 150 327
e 150 332
e 150 369
e 150 391
e 150 454
e 150 477
e 150 589
e 150 601
e 150 648
e 150 665
e 150 193
e 150 752
e 150 862
e 150 904
e 150 944
e 150 984
e 150 1018
e 150 1062
e 150 1092
e 150 1155
e 150 1195
e 152 587
e 154 155
e 155 307
e 157 371
e 158 159
e 158 320
e 158 909
e 160 161
e 161 162
e 161 197
e 161 206
e 161 251
e 161 256
e 161 260
e 161 271
e 161 302
e 161 398
e 161 434
e 161 437
e 161 442
e 161 588
e 161 673
e 161 676
e 161 777
e 161 785
e 161 826
e 161 829
e 161 942
e 161 1035
e 161 1063
e 161 1094
e 161 1097
e 161 1139
e 161 1148
e 161 1162
e 161 1174
e 163 164
e 163 276
e 163 757
e 163 481
e 165 166
e 165 304
e 165 358
e 165 420
e 165 462
e 165 511
e 165 521
e 165 566
e 165 581
e 165 756
e 165 791
e 165 802
e 165 847
e 165 208
e 165 1132
e 168 169
e 168 276
e 168 405
e 168 596
e 168 642
e 168 255
e 168 362
e 169 291
e 169 421
e 170 318
e 172 424
e 173 174
e 173 183
e 173 213
e 173 362
e 173 550
e 173 418
e 173 1071
e 175 176
e 175 539
e 175 1199
e 176 184
e 176 723
e 177 263
e 180 181
e 180 185
e 184 479
e 184 487
e 184 1059
e 185 539
e 185 1054
e 186 187
e 186 864
e 187 441
e 188 189
e 188 356
e 188 382
e 188 886
e 188 204
e 188 905
e 188 911
e 188 927
e 188 1066
e 188 1130
e 188 1140
e 188 284
e 188 1170
e 190 191
e 190 353
e 190 512
e 190 643
e 190 652
e 190 956
e 190 642
e 197 219
e 198 199
e 198 253
e 198 490
e 198 491
e 198 553
e 198 567
e 198 574
e 198 761
e 198 820
e 198 648
e 198 1125
e 198 1207
e 200 201
e 200 682
e 200 917
e 202 203
e 202 379
e 202 504
e 202 407
e 211 212
e 211 252
e 211 677
e 211 273
e 211 385
e 211 863
e 213 333
e 214 215
e 214 556
e 214 297
e 214 1152
e 217 218
e 217 259
e 217 535
e 217 645
e 217 1000
e 217 1141
e 217 505
e 219 220
e 219 304
e 219 359
e 219 368
e 219 430
e 219 461
e 219 507
e 219 513
e 219 599
e 219 750
e 219 763
e 219 792
e 219 801
e 219 875
e 219 880
e 219 884
e 219 930
e 219 995
e 219 776
e 219 1031
e 219 1126
e 219 1133
e 219 1136
e 219 830
e 221 222
e 221 740
e 221 805
e 221 843
e 221 860
e 221 985
e 223 224
e 223 363
e 223 372
e 223 1194
e 225 226
e 226 712
e 227 228
e 227 284
e 227 328
e 227 381
e 227 423
e 227 460
e 227 591
e 227 624
e 227 758
e 227 861
e 227 478
e 227 1021
e 227 1032
e 227 1041
e 227 1065
e 227 1075
e 227 1083
e 227 1114
e 227 427
e 227 1106
e 227 1154
e 229 230
e 229 746
e 229 307
e 229 1107
e 229 1144
e 229 564
e 230 983
e 231 318
e 232 233
e 232 362
e 232 859
e 235 236
e 235 354
e 235 407
e 235 455
e 235 522
e 235 546
e 235 432
e 237 238
e 237 672
e 238 981
e 240 241
e 240 390
e 240 393
e 240 737
e 247 248
e 247 532
e 247 616
e 248 1122
e 252 426
e 254 255
e 254 258
e 254 436
e 254 562
e 254 924
e 254 1061
e 254 1189
e 255 653
e 257 669
e 257 794
e 257 933
e 258 505
e 263 264
e 263 582
e 263 475
e 263 364
e 263 270
e 263 704
e 263 941
e 263 1175
e 266 267
e 266 725
e 272 273
e 272 386
e 272 558
e 272 870
e 272 1027
e 272 1043
e 272 1072
e 274 275
e 274 555
e 274 647
e 274 883
e 274 988
e 274 1040
e 279 280
e 282 283
e 282 735
e 287 288
e 288 403
e 289 290
e 289 331
e 289 618
e 289 1016
e 289 1090
e 291 292
e 291 297
e 291 590
e 291 783
e 291 854
e 300 301
e 300 452
e 300 488
e 300 891
e 300 900
e 300 1073
e 300 1190
e 305 306
e 305 666
e 305 714
e 305 1069
e 305 1184
e 307 489
e 307 823
e 309 310
e 309 674
e 309 1168
e 311 403
e 312 538
e 314 315
e 314 396
e 314 486
e 314 748
e 314 780
e 314 547
e 314 918
e 314 991
e 314 1029
e 314 1128
e 314 1192
e 314 877
e 316 317
e 316 1100
e 316 407
e 318 319
e 318 350
e 318 474
e 318 594
e 318 646
e 318 709
e 318 797
e 318 878
e 318 890
e 318 910
e 318 951
e 318 831
e 318 1058
e 318 581
e 318 1137
e 318 358
e 320 549
e 320 1046
e 322 323
e 322 401
e 322 937
e 325 340
e 330 331
e 330 514
e 330 887
e 331 593
e 331 723
e 332 611
e 333 334
e 333 410
e 333 418
e 333 506
e 333 560
e 335 336
e 335 559
e 335 790
e 337 338
e 337 879
e 337 1104
e 337 362
e 340 341
e 340 380
e 340 675
e 346 347
e 346 389
e 346 495
e 346 716
e 346 809
e 346 1025
e 346 1101
e 351 352
e 353 983
e 364 383
e 364 614
e 370 371
e 370 953
e 373 374
e 373 796
e 375 376
e 375 498
e 375 519
e 375 839
e 375 1055
e 375 598
e 383 540
e 383 552
e 385 605
e 387 388
e 387 447
e 387 448
e 387 520
e 387 949
e 387 971
e 388 539
e 389 458
e 392 393
e 392 607
e 401 402
e 401 654
e 401 729
e 403 404
e 403 1024
e 404 443
e 407 457
e 408 409
e 408 429
e 408 965
e 408 990
e 408 558
e 408 1014
e 408 1211
e 411 441
e 413 414
e 413 469
e 421 422
e 421 481
e 421 681
e 424 425
e 425 865
e 426 579
e 426 811
e 426 805
e 438 439
e 438 751
e 438 487
e 438 604
e 441 492
e 441 902
e 441 1015
e 443 1167
e 446 749
e 446 1158
e 448 483
e 457 701
e 457 836
e 458 459
e 458 638
e 458 663
e 458 839
e 468 469
e 468 667
e 468 997
e 469 729
e 469 947
e 475 476
e 475 672
e 483 606
e 483 655
e 483 745
e 489 1129
e 493 494
e 493 1013
e 499 500
e 499 562
e 499 586
e 499 639
e 499 724
e 499 936
e 499 945
e 505 844
e 505 882
e 505 1022
e 505 562
e 509 510
e 509 527
e 509 704
e 509 803
e 509 550
e 509 892
e 509 980
e 509 1119
e 525 526
e 530 531
e 530 999
e 530 737
e 530 1209
e 530 1213
e 533 534
e 533 672
e 539 1030
e 541 542
e 548 549
e 548 1077
e 552 728
e 552 1121
e 564 565
e 575 576
e 575 879
e 575 1019
e 575 1044
e 575 1112
e 575 1113
e 597 598
e 597 967
e 605 747
e 605 800
e 605 998
e 608 609
e 608 669
e 608 1060
e 611 612
e 611 1045
e 611 1096
e 614 615
e 614 1076
e 615 787
e 615 807
e 631 632
e 631 893
e 636 637
e 640 641
e 640 737
e 640 1117
e 641 774
e 644 1002
e 653 708
e 654 729
e 654 1120
e 663 774
e 667 668
e 668 1115
e 672 738
e 690 691
e 690 919
e 690 959
e 690 704
e 698 699
e 698 1118
e 698 784
e 712 713
e 729 730
e 729 1036
e 731 732
e 731 794
e 738 962
e 763 993
e 774 775
e 774 914
e 784 1217
e 795 796
e 806 807
e 806 933
e 841 842
e 841 931
e 841 941
e 841 989
e 841 1142
e 856 857
e 856 977
e 888 977
e 914 1039
e 915 916
e 917 1008
e 925 926
e 961 962
e 993 1033
e 1009 1010
e 1033 1034
e 1039 1143
e 1046 1047
e 1051 1052
e 1051 1215
e 1122 1186
l 1200
t 713 925
